NAME: rue_20_6
TYPE: TSP
DIMENSION: 20
EDGE_WEIGHT_TYPE: EUC_2D
NODE_COORD_SECTION
1 78 48
2 66 37
3 71 97
4 11 44
5 16 61
6 73 87
7 18 46
8 35 16
9 34 58
10 88 95
11 41 43
12 45 86
13 99 94
14 41 40
15 55 33
16 68 92
17 61 75
18 33 3
19 91 8
20 68 96
